(set-logic BV) (define-fun origCir ((n142 Bool) (n129 Bool) (n135 Bool) (n133 Bool) (n108 Bool) (n125 Bool)) Bool (and n142 (and (not (and (and n135 n133) n129)) (xor n108 n125)))) (synth-fun skel ((n142 Bool) (n129 Bool) (n135 Bool) (n133 Bool) (n108 Bool) (n125 Bool)) Bool) (declare-var n142 Bool) (declare-var n129 Bool) (declare-var n135 Bool) (declare-var n133 Bool) (declare-var n108 Bool) (declare-var n125 Bool) (constraint (= (origCir n142 n129 n135 n133 n108 n125) (skel n142 n129 n135 n133 n108 n125))) (check-synth)
